; benchmark generated from python API
(set-info :status unknown)
(declare-datatypes ((RealState 0)) (((RMk1 (rval1 Real)) (RMk2 (rval2 Real)))))
 (declare-fun yuscore2dollarskuscore55 () Real)
(declare-fun t28uscore0dollarskuscore1 () Real)
(declare-fun xuscore2dollarskuscore47 () Real)
(declare-fun stuscore2dollarskuscore55 () Real)
(assert
 (let (($x181 (exists ((ts28uscore1_st RealState) (val!1 Real) )(let (($x147 (<= (+ (* (- 2.0) t28uscore0dollarskuscore1) yuscore2dollarskuscore55) 12.0)))
 (let (($x143 (<= yuscore2dollarskuscore55 (+ 10.0 xuscore2dollarskuscore47))))
 (let (($x140 (>= yuscore2dollarskuscore55 (- 5.0 (* 2.0 xuscore2dollarskuscore47)))))
 (let (($x135 (<= yuscore2dollarskuscore55 12.0)))
 (let (($x133 (>= yuscore2dollarskuscore55 1.0)))
 (let (($x131 (= stuscore2dollarskuscore55 2.0)))
 (let (($x116 (< yuscore2dollarskuscore55 5.0)))
 (let (($x114 (>= t28uscore0dollarskuscore1 0.0)))
 (let (($x20 (and (<= 0.0 (rval2 ts28uscore1_st)) (<= (rval2 ts28uscore1_st) t28uscore0dollarskuscore1))))
 (let (($x22 (=> $x20 (>= (+ (* (- 2.0) (rval2 ts28uscore1_st)) yuscore2dollarskuscore55) 5.0))))
 (let (($x41 (and (and (and (and (and (and $x22 $x114) $x116) $x131) $x133) $x135) $x140)))
 (let (($x94 (not (= ts28uscore1_st (RMk1 val!1)))))
 (and $x94 (=> (and $x41 $x143) $x147)))))))))))))))
 ))
 (not $x181)))
(check-sat)
